\* Problem: test *\

Minimize
 obj: + 2 x1 + 3 x2 + 4 x3 + 3 x4 + 2 x5 + x6 + x7 + 4 x8 + 3 x9 + 4 x10
 + 5 x11 + 2 x12 + 10 i1 + 30 i2 + 20 i3 + 10 i4 + 30 i5 + 20 i6 + 10 i7
 + 30 i8 + 20 i9 + 10 i10 + 30 i11 + 20 i12

Subject To
 c1: + x3 + x2 + x1 = 10
 c2: + x6 + x5 + x4 = 30
 c3: + x9 + x8 + x7 = 40
 c4: + x12 + x11 + x10 = 20
 c5: + x10 + x7 + x4 + x1 = 20
 c6: + x11 + x8 + x5 + x2 = 50
 c7: + x12 + x9 + x6 + x3 = 30
 c8: + 10 i1 - x1 >= 0
 c9: + 10 i2 - x2 >= 0
 c10: + 10 i3 - x3 >= 0
 c11: + 20 i4 - x4 >= 0
 c12: + 30 i5 - x5 >= 0
 c13: + 30 i6 - x6 >= 0
 c14: + 20 i7 - x7 >= 0
 c15: + 40 i8 - x8 >= 0
 c16: + 30 i9 - x9 >= 0
 c17: + 20 i10 - x10 >= 0
 c18: + 20 i11 - x11 >= 0
 c19: + 20 i12 - x12 >= 0

Bounds
 0 <= i1 <= 1
 0 <= i2 <= 1
 0 <= i3 <= 1
 0 <= i4 <= 1
 0 <= i5 <= 1
 0 <= i6 <= 1
 0 <= i7 <= 1
 0 <= i8 <= 1
 0 <= i9 <= 1
 0 <= i10 <= 1
 0 <= i11 <= 1
 0 <= i12 <= 1

Generals
 i1
 i2
 i3
 i4
 i5
 i6
 i7
 i8
 i9
 i10
 i11
 i12

End
